c description: Random 3-CNF over 7 variables and 4 clauses
c generator: CNFgen (0.9.2)
c copyright: (C) 2012-2022 Massimo Lauria <massimo.lauria@uniroma1.it>
c url: https://massimolauria.net/cnfgen
c command line: cnfgen randkcnf 3 7 4
c
p cnf 7 4
1 3 5 0
2 4 -6 0
5 6 -7 0
2 -6 7 0
